Maximize
  2.16 x1 + 1.26 x2 + 0.812 x3
Subject To
  x1 >= 400
  x2 >= 800
  x3 >= 10000
  x1 + x2 + x3 <= 200000
  0.2 x1 + 0.3 x2 + 0.4 x3 <= 60000
Bounds
  x1 >= 0
  x2 >= 0
  x3 >= 0
End